100
1000
239
237
237
235
234
234
234
233
232
232
231
229
229
227
226
226
225
224
224
223
222
222
222
220
220
219
215
212
212
207
206
205
205
205
204
204
203
203
202
201
201
201
201
200
200
199
198
198
197
195
195
195
194
193
192
191
191
191
190
189
189
189
188
187
187
186
186
185
185
183
183
182
182
182
181
180
180
180
180
179
178
177
177
174
173
173
173
173
170
170
169
168
168
167
167
166
163
163
162
162
